p cnf 818
-22 -218
-23 -221
-24 -224
-25 -227
-26 -230
-27 -233
-28 -236
-29 -239
-30 -242
-31 -245
-32 -248
-33 -251
-34 -254
-35 -257
-36 -260
-37 -263
-38 -266
-39 -269
-40 -272
-41 -275
-42 -278
-43 -280
-44 -282
-45 -284
-46 -286
-47 -288
-48 -290
-49 -292
-50 -294
-51 -296
-52 -298
-53 -300
-54 -302
-55 -304
-56 -306
-57 -308
-58 -310
-59 -312
-60 -314
-61 -316
-62 -318
-63 -320
-64 321
-65 -40
-65 42
40 -42 65
-66 40
-66 -42
-40 42 66
-67 -65
-67 -66
65 66 67
-68 -1
-68 -2
1 2 68
-69 -3
-69 -4
3 4 69
-70 -5
-70 -6
5 6 70
-71 -7
-71 -8
7 8 71
-72 -9
-72 -10
9 10 72
-73 -11
-73 -12
11 12 73
-74 -13
-74 -14
13 14 74
-75 -15
-75 -16
15 16 75
-76 -17
-76 -18
17 18 76
-77 -19
-77 -20
19 20 77
-78 68
-78 69
-68 -69 78
-79 70
-79 71
-70 -71 79
-80 72
-80 73
-72 -73 80
-81 74
-81 75
-74 -75 81
-82 76
-82 77
-76 -77 82
-83 78
-83 79
-78 -79 83
-84 80
-84 81
-80 -81 84
-85 -21
-85 82
21 -82 85
-86 83
-86 84
-83 -84 86
-87 85
-87 86
-85 -86 87
-88 -43
-88 -44
43 44 88
-89 -45
-89 -46
45 46 89
-90 -47
-90 -48
47 48 90
-91 -49
-91 -50
49 50 91
-92 -51
-92 -52
51 52 92
-93 -53
-93 -54
53 54 93
-94 -55
-94 -56
55 56 94
-95 -57
-95 -58
57 58 95
-96 -59
-96 -60
59 60 96
-97 -61
-97 -62
61 62 97
-98 88
-98 89
-88 -89 98
-99 90
-99 91
-90 -91 99
-100 92
-100 93
-92 -93 100
-101 94
-101 95
-94 -95 101
-102 96
-102 97
-96 -97 102
-103 98
-103 99
-98 -99 103
-104 100
-104 101
-100 -101 104
-105 -63
-105 102
63 -102 105
-106 103
-106 104
-103 -104 106
-107 105
-107 106
-105 -106 107
-108 43
-108 -67
-43 67 108
-109 -43
-109 67
43 -67 109
-110 -108
-110 -109
108 109 110
-111 22
-111 44
-22 -44 111
-112 -22
-112 -44
22 44 112
-113 -111
-113 -112
111 112 113
-114 23
-114 45
-23 -45 114
-115 -23
-115 -45
23 45 115
-116 -114
-116 -115
114 115 116
-117 24
-117 46
-24 -46 117
-118 -24
-118 -46
24 46 118
-119 -117
-119 -118
117 118 119
-120 25
-120 47
-25 -47 120
-121 -25
-121 -47
25 47 121
-122 -120
-122 -121
120 121 122
-123 26
-123 48
-26 -48 123
-124 -26
-124 -48
26 48 124
-125 -123
-125 -124
123 124 125
-126 27
-126 49
-27 -49 126
-127 -27
-127 -49
27 49 127
-128 -126
-128 -127
126 127 128
-129 28
-129 50
-28 -50 129
-130 -28
-130 -50
28 50 130
-131 -129
-131 -130
129 130 131
-132 29
-132 51
-29 -51 132
-133 -29
-133 -51
29 51 133
-134 -132
-134 -133
132 133 134
-135 30
-135 52
-30 -52 135
-136 -30
-136 -52
30 52 136
-137 -135
-137 -136
135 136 137
-138 31
-138 53
-31 -53 138
-139 -31
-139 -53
31 53 139
-140 -138
-140 -139
138 139 140
-141 32
-141 54
-32 -54 141
-142 -32
-142 -54
32 54 142
-143 -141
-143 -142
141 142 143
-144 33
-144 55
-33 -55 144
-145 -33
-145 -55
33 55 145
-146 -144
-146 -145
144 145 146
-147 34
-147 56
-34 -56 147
-148 -34
-148 -56
34 56 148
-149 -147
-149 -148
147 148 149
-150 35
-150 57
-35 -57 150
-151 -35
-151 -57
35 57 151
-152 -150
-152 -151
150 151 152
-153 36
-153 58
-36 -58 153
-154 -36
-154 -58
36 58 154
-155 -153
-155 -154
153 154 155
-156 37
-156 59
-37 -59 156
-157 -37
-157 -59
37 59 157
-158 -156
-158 -157
156 157 158
-159 38
-159 60
-38 -60 159
-160 -38
-160 -60
38 60 160
-161 -159
-161 -160
159 160 161
-162 39
-162 61
-39 -61 162
-163 -39
-163 -61
39 61 163
-164 -162
-164 -163
162 163 164
-165 40
-165 62
-40 -62 165
-166 -40
-166 -62
40 62 166
-167 -165
-167 -166
165 166 167
-168 41
-168 63
-41 -63 168
-169 -41
-169 -63
41 63 169
-170 -168
-170 -169
168 169 170
-171 -110
-171 -113
110 113 171
-172 -116
-172 -119
116 119 172
-173 -122
-173 -125
122 125 173
-174 -128
-174 -131
128 131 174
-175 -134
-175 -137
134 137 175
-176 -140
-176 -143
140 143 176
-177 -146
-177 -149
146 149 177
-178 -152
-178 -155
152 155 178
-179 -158
-179 -161
158 161 179
-180 -164
-180 -167
164 167 180
-181 171
-181 172
-171 -172 181
-182 173
-182 174
-173 -174 182
-183 175
-183 176
-175 -176 183
-184 177
-184 178
-177 -178 184
-185 179
-185 180
-179 -180 185
-186 181
-186 182
-181 -182 186
-187 183
-187 184
-183 -184 187
-188 -170
-188 185
170 -185 188
-189 186
-189 187
-186 -187 189
-190 188
-190 189
-188 -189 190
-191 -107
-191 190
107 -190 191
-192 64
-192 191
-64 -191 192
-193 87
-193 192
-87 -192 193
-194 -22
-194 67
22 -67 194
-195 -23
-195 -24
23 24 195
-196 -25
-196 -26
25 26 196
-197 -27
-197 -28
27 28 197
-198 -29
-198 -30
29 30 198
-199 -31
-199 -32
31 32 199
-200 -33
-200 -34
33 34 200
-201 -35
-201 -36
35 36 201
-202 -37
-202 -38
37 38 202
-203 -39
-203 -40
39 40 203
-204 194
-204 195
-194 -195 204
-205 196
-205 197
-196 -197 205
-206 198
-206 199
-198 -199 206
-207 200
-207 201
-200 -201 207
-208 202
-208 203
-202 -203 208
-209 204
-209 205
-204 -205 209
-210 206
-210 207
-206 -207 210
-211 -41
-211 208
41 -208 211
-212 209
-212 210
-209 -210 212
-213 211
-213 212
-211 -212 213
-214 -107
-214 213
107 -213 214
-215 87
-215 -191
-87 191 215
-216 1
-216 -87
-1 87 216
-217 -67
-217 87
67 -87 217
-218 -216
-218 -217
216 217 218
-219 2
-219 -87
-2 87 219
-220 22
-220 87
-22 -87 220
-221 -219
-221 -220
219 220 221
-222 3
-222 -87
-3 87 222
-223 23
-223 87
-23 -87 223
-224 -222
-224 -223
222 223 224
-225 4
-225 -87
-4 87 225
-226 24
-226 87
-24 -87 226
-227 -225
-227 -226
225 226 227
-228 5
-228 -87
-5 87 228
-229 25
-229 87
-25 -87 229
-230 -228
-230 -229
228 229 230
-231 6
-231 -87
-6 87 231
-232 26
-232 87
-26 -87 232
-233 -231
-233 -232
231 232 233
-234 7
-234 -87
-7 87 234
-235 27
-235 87
-27 -87 235
-236 -234
-236 -235
234 235 236
-237 8
-237 -87
-8 87 237
-238 28
-238 87
-28 -87 238
-239 -237
-239 -238
237 238 239
-240 9
-240 -87
-9 87 240
-241 29
-241 87
-29 -87 241
-242 -240
-242 -241
240 241 242
-243 10
-243 -87
-10 87 243
-244 30
-244 87
-30 -87 244
-245 -243
-245 -244
243 244 245
-246 11
-246 -87
-11 87 246
-247 31
-247 87
-31 -87 247
-248 -246
-248 -247
246 247 248
-249 12
-249 -87
-12 87 249
-250 32
-250 87
-32 -87 250
-251 -249
-251 -250
249 250 251
-252 13
-252 -87
-13 87 252
-253 33
-253 87
-33 -87 253
-254 -252
-254 -253
252 253 254
-255 14
-255 -87
-14 87 255
-256 34
-256 87
-34 -87 256
-257 -255
-257 -256
255 256 257
-258 15
-258 -87
-15 87 258
-259 35
-259 87
-35 -87 259
-260 -258
-260 -259
258 259 260
-261 16
-261 -87
-16 87 261
-262 36
-262 87
-36 -87 262
-263 -261
-263 -262
261 262 263
-264 17
-264 -87
-17 87 264
-265 37
-265 87
-37 -87 265
-266 -264
-266 -265
264 265 266
-267 18
-267 -87
-18 87 267
-268 38
-268 87
-38 -87 268
-269 -267
-269 -268
267 268 269
-270 19
-270 -87
-19 87 270
-271 39
-271 87
-39 -87 271
-272 -270
-272 -271
270 271 272
-273 20
-273 -87
-20 87 273
-274 40
-274 87
-40 -87 274
-275 -273
-275 -274
273 274 275
-276 21
-276 -87
-21 87 276
-277 41
-277 87
-41 -87 277
-278 -276
-278 -277
276 277 278
-279 43
-279 87
-43 -87 279
-280 -216
-280 -279
216 279 280
-281 44
-281 87
-44 -87 281
-282 -219
-282 -281
219 281 282
-283 45
-283 87
-45 -87 283
-284 -222
-284 -283
222 283 284
-285 46
-285 87
-46 -87 285
-286 -225
-286 -285
225 285 286
-287 47
-287 87
-47 -87 287
-288 -228
-288 -287
228 287 288
-289 48
-289 87
-48 -87 289
-290 -231
-290 -289
231 289 290
-291 49
-291 87
-49 -87 291
-292 -234
-292 -291
234 291 292
-293 50
-293 87
-50 -87 293
-294 -237
-294 -293
237 293 294
-295 51
-295 87
-51 -87 295
-296 -240
-296 -295
240 295 296
-297 52
-297 87
-52 -87 297
-298 -243
-298 -297
243 297 298
-299 53
-299 87
-53 -87 299
-300 -246
-300 -299
246 299 300
-301 54
-301 87
-54 -87 301
-302 -249
-302 -301
249 301 302
-303 55
-303 87
-55 -87 303
-304 -252
-304 -303
252 303 304
-305 56
-305 87
-56 -87 305
-306 -255
-306 -305
255 305 306
-307 57
-307 87
-57 -87 307
-308 -258
-308 -307
258 307 308
-309 58
-309 87
-58 -87 309
-310 -261
-310 -309
261 309 310
-311 59
-311 87
-59 -87 311
-312 -264
-312 -311
264 311 312
-313 60
-313 87
-60 -87 313
-314 -267
-314 -313
267 313 314
-315 61
-315 87
-61 -87 315
-316 -270
-316 -315
270 315 316
-317 62
-317 87
-62 -87 317
-318 -273
-318 -317
273 317 318
-319 63
-319 87
-63 -87 319
-320 -276
-320 -319
276 319 320
-321 -64
-321 215
64 -215 321
-322 -193
-322 -214
193 214 322
-322
